mixintcount/benchmarks/random_v2l/3_3_50.smt2
(set-logic QF_LIA)
(set-info :ran/ran2.smt2)
(set-info :smt-lib-version 2.0)
(declare-fun x1 () Int)
(declare-fun x2 () Int)
(declare-fun x3 () Int)
(assert (<= (+ (* (- 5) x1) (* (- 10) x2) (* 9 x3) ) 43))
(assert (<= (+ (* 3 x1) (* (- 4) x2) (* 2 x3) ) 28))
(assert (<= (+ (* 7 x1) (* 7 x2) (* 10 x3) ) (- 21)))
(assert (<= (+ (* (- 3) x1) (* (- 5) x2) (* 4 x3) ) (- 41)))
(assert (<= (+ (* (- 8) x1) (* 2 x2) (* 5 x3) ) (- 39)))
(assert (<= (+ (* 1 x1) (* 0 x2) (* 10 x3) ) (- 50)))
(assert (<= (+ (* 1 x1) (* 0 x2) (* 0 x3) ) 50))
(assert (<= (+ (* (- 1) x1) (* 0 x2) (* 0 x3) ) 50))
(assert (<= (+ (* 0 x1) (* 1 x2) (* 0 x3) ) 50))
(assert (<= (+ (* 0 x1) (* (- 1) x2) (* 0 x3) ) 50))
(assert (<= (+ (* 0 x1) (* 0 x2) (* 1 x3) ) 50))
(assert (<= (+ (* 0 x1) (* 0 x2) (* (- 1) x3) ) 50))
