mixintcount/benchmarks/random_v2l/3_3_50.in
12 5
#	x1	x2	x3;		0 = Real; 1 = Integer
	1	1	1
1	-5	-10	9	43
1	3	-4	2	28
1	7	7	10	-21
1	-3	-5	4	-41
1	-8	2	5	-39
1	1	0	10	-50
1	1	0	0	50
1	-1	0	0	50
1	0	1	0	50
1	0	-1	0	50
1	0	0	1	50
1	0	0	-1	50
